<number of tasks>
1000

<cycle time>
1000

<order strength>
0,595


<task times>
1 141
2 228
3 23
4 233
5 122
6 122
7 283
8 149
9 64
10 92
11 65
12 36
13 312
14 43
15 30
16 181
17 216
18 170
19 52
20 64
21 89
22 172
23 78
24 67
25 52
26 246
27 217
28 164
29 210
30 119
31 146
32 164
33 100
34 105
35 187
36 306
37 115
38 77
39 340
40 108
41 147
42 131
43 74
44 225
45 82
46 188
47 95
48 126
49 78
50 194
51 55
52 241
53 143
54 77
55 123
56 51
57 97
58 173
59 151
60 81
61 55
62 139
63 142
64 138
65 207
66 96
67 96
68 101
69 399
70 82
71 37
72 60
73 92
74 130
75 134
76 224
77 137
78 232
79 25
80 185
81 39
82 24
83 89
84 191
85 28
86 200
87 237
88 129
89 53
90 67
91 274
92 87
93 145
94 69
95 150
96 68
97 205
98 206
99 88
100 55
101 123
102 167
103 79
104 79
105 128
106 124
107 43
108 265
109 145
110 92
111 82
112 290
113 146
114 108
115 59
116 221
117 282
118 83
119 30
120 73
121 116
122 139
123 194
124 208
125 66
126 224
127 159
128 106
129 103
130 61
131 35
132 121
133 51
134 238
135 38
136 140
137 49
138 45
139 29
140 129
141 25
142 57
143 196
144 115
145 220
146 213
147 34
148 207
149 63
150 181
151 64
152 152
153 63
154 260
155 47
156 266
157 215
158 246
159 51
160 221
161 133
162 252
163 61
164 70
165 96
166 20
167 104
168 227
169 107
170 136
171 59
172 77
173 85
174 83
175 51
176 207
177 265
178 124
179 64
180 64
181 149
182 159
183 184
184 232
185 94
186 258
187 40
188 238
189 46
190 294
191 283
192 195
193 169
194 120
195 21
196 114
197 56
198 165
199 138
200 28
201 63
202 108
203 179
204 152
205 164
206 127
207 104
208 214
209 105
210 72
211 209
212 92
213 210
214 59
215 86
216 151
217 37
218 293
219 202
220 274
221 245
222 117
223 222
224 137
225 188
226 359
227 76
228 91
229 113
230 69
231 83
232 87
233 131
234 95
235 164
236 53
237 26
238 184
239 121
240 115
241 131
242 137
243 269
244 111
245 95
246 191
247 123
248 39
249 185
250 125
251 255
252 261
253 141
254 389
255 98
256 71
257 91
258 271
259 137
260 384
261 147
262 273
263 144
264 24
265 242
266 352
267 159
268 50
269 111
270 102
271 93
272 29
273 142
274 183
275 149
276 165
277 225
278 226
279 153
280 89
281 147
282 187
283 133
284 102
285 101
286 150
287 211
288 196
289 36
290 137
291 123
292 58
293 94
294 50
295 36
296 124
297 175
298 67
299 82
300 254
301 157
302 90
303 235
304 147
305 251
306 204
307 81
308 116
309 76
310 162
311 108
312 118
313 304
314 165
315 184
316 31
317 161
318 123
319 87
320 103
321 40
322 161
323 317
324 87
325 125
326 126
327 72
328 94
329 323
330 74
331 23
332 180
333 140
334 161
335 38
336 134
337 100
338 178
339 62
340 170
341 100
342 210
343 167
344 225
345 33
346 29
347 115
348 211
349 122
350 146
351 209
352 186
353 32
354 63
355 177
356 190
357 202
358 155
359 66
360 172
361 86
362 72
363 92
364 231
365 202
366 188
367 279
368 178
369 94
370 205
371 178
372 233
373 154
374 91
375 48
376 103
377 67
378 24
379 119
380 119
381 93
382 283
383 102
384 30
385 114
386 84
387 298
388 156
389 46
390 96
391 56
392 98
393 93
394 84
395 57
396 103
397 39
398 147
399 39
400 210
401 166
402 132
403 143
404 221
405 127
406 118
407 75
408 257
409 119
410 191
411 223
412 130
413 297
414 195
415 180
416 121
417 147
418 88
419 196
420 159
421 177
422 136
423 63
424 89
425 91
426 255
427 126
428 217
429 80
430 238
431 234
432 165
433 147
434 20
435 156
436 46
437 47
438 48
439 79
440 57
441 64
442 117
443 41
444 116
445 201
446 80
447 113
448 169
449 47
450 157
451 206
452 52
453 204
454 58
455 66
456 80
457 58
458 114
459 101
460 167
461 62
462 257
463 73
464 212
465 86
466 337
467 170
468 200
469 136
470 92
471 38
472 111
473 20
474 160
475 84
476 317
477 160
478 139
479 66
480 35
481 183
482 66
483 236
484 64
485 82
486 23
487 318
488 187
489 220
490 167
491 180
492 44
493 309
494 21
495 34
496 35
497 138
498 115
499 162
500 158
501 127
502 36
503 174
504 43
505 227
506 146
507 191
508 73
509 262
510 89
511 138
512 31
513 116
514 136
515 66
516 250
517 76
518 182
519 106
520 239
521 147
522 128
523 61
524 63
525 58
526 109
527 175
528 127
529 65
530 179
531 212
532 74
533 95
534 93
535 223
536 106
537 176
538 91
539 143
540 177
541 251
542 103
543 229
544 33
545 157
546 292
547 32
548 36
549 235
550 33
551 184
552 211
553 116
554 71
555 263
556 68
557 35
558 39
559 173
560 178
561 26
562 183
563 72
564 88
565 115
566 124
567 90
568 280
569 103
570 161
571 243
572 178
573 100
574 189
575 109
576 123
577 130
578 70
579 77
580 101
581 56
582 172
583 115
584 144
585 131
586 290
587 284
588 126
589 51
590 82
591 35
592 188
593 25
594 265
595 80
596 169
597 65
598 34
599 157
600 238
601 100
602 49
603 152
604 183
605 96
606 157
607 142
608 248
609 157
610 167
611 39
612 64
613 141
614 106
615 124
616 49
617 118
618 223
619 87
620 102
621 184
622 220
623 179
624 206
625 62
626 28
627 207
628 174
629 195
630 347
631 88
632 118
633 312
634 39
635 192
636 230
637 219
638 89
639 143
640 103
641 211
642 28
643 64
644 34
645 174
646 150
647 189
648 48
649 82
650 245
651 203
652 77
653 185
654 92
655 168
656 110
657 233
658 112
659 155
660 207
661 90
662 131
663 163
664 67
665 114
666 159
667 67
668 216
669 120
670 268
671 228
672 41
673 99
674 156
675 80
676 145
677 130
678 293
679 107
680 23
681 216
682 177
683 175
684 245
685 89
686 98
687 134
688 179
689 304
690 210
691 103
692 120
693 77
694 135
695 176
696 153
697 93
698 74
699 34
700 160
701 72
702 323
703 38
704 70
705 226
706 198
707 163
708 152
709 276
710 221
711 167
712 56
713 159
714 205
715 115
716 38
717 127
718 224
719 161
720 201
721 264
722 69
723 136
724 206
725 286
726 156
727 127
728 123
729 110
730 106
731 113
732 137
733 116
734 280
735 108
736 194
737 126
738 160
739 125
740 160
741 84
742 156
743 131
744 29
745 112
746 201
747 29
748 119
749 120
750 91
751 142
752 29
753 211
754 26
755 257
756 45
757 156
758 104
759 239
760 263
761 79
762 87
763 143
764 146
765 76
766 40
767 197
768 37
769 22
770 49
771 121
772 128
773 187
774 158
775 25
776 322
777 299
778 47
779 154
780 194
781 41
782 157
783 63
784 199
785 93
786 85
787 139
788 158
789 146
790 163
791 83
792 104
793 133
794 182
795 63
796 208
797 115
798 154
799 453
800 127
801 157
802 172
803 97
804 255
805 237
806 95
807 178
808 173
809 171
810 202
811 83
812 206
813 289
814 97
815 82
816 272
817 176
818 136
819 28
820 38
821 235
822 41
823 191
824 134
825 68
826 55
827 119
828 137
829 95
830 288
831 55
832 129
833 165
834 30
835 173
836 142
837 81
838 191
839 63
840 47
841 156
842 73
843 113
844 77
845 47
846 46
847 213
848 103
849 105
850 126
851 313
852 226
853 50
854 186
855 26
856 220
857 54
858 188
859 103
860 64
861 189
862 72
863 128
864 96
865 58
866 228
867 53
868 220
869 114
870 133
871 71
872 67
873 324
874 116
875 141
876 108
877 132
878 201
879 87
880 191
881 46
882 129
883 40
884 113
885 189
886 81
887 150
888 191
889 41
890 204
891 49
892 24
893 167
894 53
895 31
896 147
897 48
898 170
899 318
900 120
901 246
902 233
903 83
904 125
905 236
906 36
907 84
908 116
909 85
910 32
911 71
912 117
913 86
914 23
915 338
916 153
917 238
918 181
919 73
920 278
921 214
922 127
923 84
924 76
925 128
926 44
927 50
928 88
929 112
930 139
931 118
932 38
933 119
934 89
935 92
936 72
937 47
938 111
939 73
940 133
941 24
942 23
943 116
944 76
945 56
946 245
947 27
948 170
949 141
950 89
951 99
952 414
953 67
954 79
955 203
956 248
957 55
958 115
959 65
960 114
961 97
962 102
963 259
964 90
965 235
966 55
967 121
968 104
969 61
970 167
971 145
972 101
973 169
974 222
975 125
976 95
977 125
978 170
979 240
980 121
981 223
982 180
983 60
984 50
985 104
986 280
987 113
988 92
989 156
990 87
991 130
992 28
993 63
994 137
995 244
996 147
997 89
998 187
999 177
1000 63

<precedence relations>
1,486
2,505
3,505
4,75
5,223
6,745
7,42
8,42
9,42
10,42
11,42
12,16
12,25
12,26
12,39
13,15
13,16
13,18
13,20
13,22
13,23
13,24
14,17
14,19
14,21
14,27
14,28
14,29
14,147
15,743
16,340
17,855
18,75
19,258
20,189
21,189
22,42
23,42
24,42
25,42
26,42
27,140
28,828
29,30
29,31
29,32
29,33
29,34
29,35
29,36
29,37
29,38
29,39
29,40
29,41
29,43
29,44
29,45
29,46
29,47
29,48
29,49
29,50
29,51
30,340
31,855
32,855
33,323
34,75
35,75
36,223
37,223
38,189
39,189
40,277
41,277
42,52
42,56
42,58
42,59
42,61
42,62
42,63
42,64
42,65
42,66
42,67
42,68
42,69
43,140
44,313
45,715
46,828
47,937
48,403
49,403
50,54
50,55
50,70
50,71
50,110
50,115
51,53
51,57
51,60
51,135
52,486
53,340
54,855
55,75
56,75
57,75
58,75
59,978
60,223
61,745
62,189
63,973
64,710
65,77
65,80
65,184
66,76
66,79
66,130
66,409
67,81
68,72
68,78
68,169
68,183
69,140
70,680
71,73
71,74
71,85
71,236
71,297
72,743
73,743
74,977
75,82
75,83
75,84
75,86
75,87
75,88
75,89
75,90
75,92
76,461
77,189
78,362
79,495
80,83
80,84
80,93
80,108
80,141
81,82
81,83
81,85
81,91
81,94
81,95
82,777
83,299
84,299
85,340
86,978
87,103
87,216
88,283
88,353
88,423
88,424
89,96
89,99
89,100
89,101
89,137
89,155
90,105
90,205
90,368
91,223
92,140
93,313
94,97
94,98
94,102
94,106
94,107
94,108
95,104
95,149
96,777
97,626
98,340
99,340
100,340
101,855
102,323
103,745
104,663
105,362
106,140
107,114
107,115
107,116
107,117
107,118
107,119
107,121
107,122
107,123
108,109
108,110
108,111
108,112
108,113
108,120
108,126
108,130
108,185
109,748
110,340
111,505
112,223
113,745
114,258
115,362
116,362
117,313
118,715
119,937
120,610
121,125
121,126
121,128
121,130
121,132
121,134
122,124
122,127
122,129
122,133
122,135
123,131
123,135
124,299
125,486
126,855
127,258
128,593
129,140
130,829
131,610
132,136
132,141
132,143
132,144
132,146
133,181
133,279
134,136
134,147
134,149
134,255
135,136
135,137
135,138
135,139
135,140
135,142
135,145
135,148
136,777
137,340
138,855
139,277
140,150
140,152
140,153
140,158
140,159
140,160
140,161
140,162
140,163
140,164
140,165
140,166
140,168
141,715
142,528
143,610
144,403
145,149
145,155
145,156
145,157
145,167
146,154
146,179
147,151
147,185
148,169
148,223
148,263
149,299
150,299
151,486
152,323
153,461
154,189
155,189
156,277
157,362
158,362
159,180
159,212
159,248
159,257
159,263
160,170
160,222
160,223
160,263
161,170
161,171
161,172
161,177
161,230
162,170
162,173
162,423
163,172
163,193
163,221
164,170
164,184
164,222
164,279
165,178
165,179
165,185
165,211
166,426
167,170
167,182
167,442
168,171
168,174
168,175
168,176
168,183
169,178
169,181
169,220
170,918
171,299
172,557
173,461
174,223
175,189
176,576
177,576
178,361
179,277
180,829
181,610
182,610
183,495
184,453
185,186
185,187
185,188
185,190
185,191
185,192
185,193
185,194
185,195
185,196
185,197
186,977
187,745
188,258
189,200
189,201
189,202
189,203
189,204
189,208
190,576
191,828
192,453
193,198
193,199
193,205
193,206
193,209
194,207
194,222
194,284
195,249
195,308
196,516
197,257
198,299
199,340
200,715
201,528
202,829
203,680
204,210
204,211
204,212
204,215
204,221
205,362
206,829
207,680
208,210
208,211
208,213
208,214
208,216
209,217
209,218
209,219
209,220
210,743
211,223
212,223
213,745
214,277
215,277
216,362
217,313
218,225
218,227
218,228
218,229
218,231
218,234
219,230
219,235
219,237
219,253
220,222
220,226
220,232
220,236
221,222
221,224
221,233
221,337
222,299
223,239
223,240
223,241
223,242
223,243
223,244
223,245
223,246
224,973
225,593
226,952
227,362
228,362
229,362
230,715
231,403
232,495
233,453
234,238
234,248
234,281
234,380
234,555
235,239
235,251
236,247
236,249
236,250
236,327
237,296
237,516
238,626
239,855
240,258
241,313
242,680
243,610
244,453
245,252
245,255
245,260
245,261
245,262
245,264
246,253
246,259
247,277
248,878
249,453
250,256
250,430
251,252
251,254
251,257
251,263
252,777
253,299
254,299
255,340
256,340
257,340
258,265
258,266
258,267
258,268
258,269
258,270
258,271
258,272
258,273
258,274
258,275
258,276
258,277
258,279
258,280
259,361
260,277
261,313
262,715
263,610
264,265
264,278
264,281
264,284
264,477
264,555
265,855
266,710
267,282
267,283
268,296
269,414
269,493
270,282
271,282
271,284
271,337
272,627
272,852
273,282
273,283
273,298
274,282
274,283
274,295
275,857
276,282
276,297
277,285
277,286
277,287
277,288
277,289
277,290
277,291
277,292
277,293
277,294
278,715
279,282
279,337
280,282
280,297
281,382
281,556
281,560
281,562
282,299
283,973
284,952
285,828
286,937
287,299
287,303
287,311
287,337
288,299
288,302
288,310
289,314
289,367
289,424
290,299
291,301
291,307
291,312
291,325
291,397
292,309
292,423
292,579
292,744
293,299
293,304
294,299
294,300
294,305
294,308
294,317
295,313
296,315
296,317
296,428
297,306
297,311
297,316
298,475
299,318
299,319
299,320
299,321
299,322
299,323
299,325
299,326
299,336
299,338
299,352
299,353
300,486
301,743
302,340
303,861
304,861
305,855
306,323
307,505
308,505
309,810
310,576
311,593
312,899
313,327
313,328
313,329
313,330
313,331
313,332
313,333
313,334
313,335
313,337
314,495
315,453
316,326
316,407
317,324
317,493
318,340
319,340
320,610
321,414
321,423
321,453
322,354
322,369
322,457
322,462
322,493
323,341
323,342
323,343
323,344
323,345
323,346
323,347
323,348
323,349
323,350
323,351
324,773
325,952
326,362
327,362
329,597
329,713
330,339
330,353
331,392
331,455
332,339
333,339
333,363
333,534
334,362
334,399
334,423
334,424
335,339
335,340
335,352
335,353
335,354
336,610
337,453
338,339
338,360
338,405
338,453
338,560
338,562
339,486
340,355
340,356
340,357
340,358
340,359
340,360
340,414
341,361
342,360
342,384
342,385
342,464
343,360
343,828
344,360
344,395
344,487
345,402
345,532
345,556
346,360
346,361
347,360
347,367
348,381
349,364
349,365
349,411
349,473
349,602
350,386
350,706
350,712
351,363
351,366
351,462
352,361
353,362
354,360
354,382
354,477
354,478
355,861
356,977
357,615
358,715
359,368
359,406
359,472
359,528
359,531
360,855
361,368
361,369
361,371
361,372
361,373
361,374
361,381
362,375
362,376
362,377
362,378
362,379
363,680
364,610
365,610
366,370
366,380
366,389
366,435
367,382
367,390
368,557
369,461
370,615
371,828
372,528
373,610
374,384
374,391
374,392
374,457
374,465
375,388
375,390
376,451
376,517
376,576
377,425
377,426
377,427
377,428
377,429
377,430
377,431
377,432
378,383
378,384
378,385
378,393
378,538
379,383
379,386
379,387
380,453
381,393
381,442
382,385
382,389
383,918
384,918
385,505
386,663
387,715
388,680
389,610
390,403
391,395
391,397
391,399
391,405
391,406
391,408
392,398
392,404
392,471
392,577
393,394
393,396
393,400
393,401
393,402
393,577
394,777
395,486
396,486
397,557
398,855
399,505
400,745
401,745
402,715
403,411
403,415
403,416
403,417
403,418
403,419
403,420
403,421
403,422
404,408
404,410
404,414
404,442
404,518
405,407
406,409
406,412
406,413
406,423
406,424
406,431
406,439
406,473
407,486
408,486
409,505
410,810
411,810
412,576
413,610
414,610
415,495
416,426
416,444
417,432
418,447
419,425
419,544
420,427
420,447
421,428
421,430
421,431
422,429
422,597
422,682
423,976
424,822
425,486
426,505
427,774
428,774
429,810
430,715
431,453
432,433
432,434
432,435
432,436
432,437
432,438
432,439
432,440
432,441
432,442
432,443
432,444
432,445
433,777
434,461
435,773
436,576
437,528
438,680
439,610
440,453
441,446
441,449
441,450
441,455
441,459
441,527
442,448
442,451
442,530
442,611
443,446
443,452
444,456
444,458
444,477
444,561
445,446
445,447
445,454
445,457
445,546
446,626
447,486
448,557
449,855
450,461
451,610
452,610
453,460
453,466
453,467
453,468
453,469
454,463
454,471
454,472
455,731
456,595
457,464
457,470
457,473
457,474
458,462
458,465
458,745
459,743
460,486
461,480
461,481
461,482
461,483
462,951
463,576
464,937
465,610
466,476
466,492
467,478
467,484
467,485
468,475
469,475
469,559
469,577
470,475
470,479
470,528
471,475
471,476
471,517
471,562
473,477
473,556
473,599
474,475
474,497
475,486
476,486
477,557
478,748
479,855
480,937
481,490
481,492
482,487
482,489
482,494
482,538
483,491
483,497
484,495
485,488
485,493
485,496
486,498
486,499
486,500
486,501
486,502
486,503
486,504
486,578
487,855
488,505
489,505
490,505
491,810
492,715
493,680
494,610
495,505
495,506
495,508
495,509
495,510
495,511
495,512
495,513
495,514
495,515
496,517
496,518
497,507
497,516
498,557
499,855
500,829
501,533
501,774
501,829
503,997
504,526
504,529
504,550
504,552
505,519
505,520
505,521
505,522
505,523
505,524
505,525
505,537
506,745
507,528
509,538
510,810
512,610
513,525
513,611
514,666
514,792
514,826
515,527
516,525
516,530
516,531
517,532
518,530
518,581
518,590
518,672
518,712
518,713
519,680
520,534
520,536
520,598
521,627
521,811
522,764
523,544
523,545
523,546
524,546
525,978
526,951
527,663
528,537
528,539
528,540
528,541
528,542
528,543
529,764
530,534
530,538
531,580
531,592
532,534
532,535
532,591
532,610
532,730
533,650
533,860
534,855
535,855
536,615
537,810
538,593
539,713
539,976
540,553
540,556
541,547
541,549
541,612
541,664
542,590
542,649
542,762
543,555
543,580
544,710
545,547
545,548
545,549
545,550
545,551
545,552
546,551
546,554
546,667
546,680
547,557
548,557
549,748
550,663
551,715
552,558
553,560
554,559
554,561
554,612
555,562
555,612
555,666
555,712
555,713
557,563
557,564
557,565
557,566
557,567
557,568
557,569
557,570
557,571
557,572
557,573
557,574
557,575
557,579
557,594
558,576
559,829
560,610
561,577
561,578
562,613
563,743
564,610
565,920
566,596
567,671
567,734
567,826
568,580
568,889
569,580
569,581
569,588
570,580
570,679
571,580
571,581
571,734
572,680
573,581
573,592
573,616
574,908
574,978
575,907
575,914
576,582
576,583
576,584
576,585
576,586
576,587
576,589
576,590
577,712
578,581
578,626
578,672
578,713
579,580
579,581
579,588
579,589
580,855
581,951
582,593
583,591
583,592
583,593
583,628
583,650
584,592
584,598
585,814
585,879
586,594
586,598
587,595
587,597
589,591
589,596
589,813
591,777
592,615
593,601
593,603
593,604
593,605
593,606
593,607
593,608
593,612
593,707
594,952
595,715
596,610
597,599
597,600
597,609
597,611
598,602
599,626
600,978
601,773
602,615
603,829
604,624
604,743
605,614
605,625
606,624
606,649
606,852
608,613
609,715
610,617
610,618
610,619
610,620
610,621
610,622
610,623
611,616
611,650
612,668
612,729
612,746
613,626
614,855
615,630
615,631
615,632
615,633
615,634
615,635
615,636
615,637
615,638
615,639
615,640
615,641
615,642
615,643
615,644
615,645
615,646
615,647
615,648
616,715
617,709
618,649
618,650
618,712
619,627
619,830
619,852
620,940
621,629
622,814
622,908
623,628
623,649
623,859
623,879
624,824
624,858
625,667
626,652
626,653
626,654
626,655
626,656
626,657
627,855
628,977
629,774
630,917
631,660
631,763
631,814
633,861
633,908
634,658
634,672
635,871
636,669
636,764
636,774
639,661
640,705
640,731
641,984
642,659
642,662
643,908
643,941
644,651
644,671
647,741
647,747
648,715
650,792
650,911
651,777
652,663
653,710
654,878
655,670
655,732
656,663
656,664
656,669
656,706
657,920
658,663
659,878
660,828
661,666
661,667
661,668
662,665
662,733
663,671
663,673
663,674
663,675
663,676
663,677
663,678
663,681
663,683
663,729
663,744
664,715
665,680
666,672
667,813
668,682
668,791
668,833
669,670
669,679
670,748
671,855
672,855
673,828
674,684
674,685
674,709
675,686
676,705
676,827
677,883
678,912
678,916
679,810
680,687
680,688
680,689
680,690
680,691
680,692
680,693
680,694
680,695
680,696
680,697
680,698
680,699
680,700
680,701
680,702
680,703
680,704
682,832
683,810
684,855
685,774
686,710
687,706
688,713
689,889
689,949
691,828
692,706
692,707
692,709
694,711
695,716
696,897
697,815
697,850
697,853
698,707
700,938
701,869
701,998
702,706
703,708
704,712
704,713
704,813
705,746
705,824
705,831
706,748
707,774
708,715
709,829
710,714
710,716
710,717
710,718
710,719
710,720
710,721
710,722
710,723
710,724
710,725
710,726
710,727
710,728
710,730
710,775
711,729
712,882
712,892
712,922
712,942
712,985
713,882
714,855
715,735
715,736
715,737
715,738
715,739
715,740
716,829
717,732
717,734
718,853
719,833
719,911
720,773
720,860
721,939
722,733
722,814
723,870
724,734
724,853
725,824
725,846
726,773
726,853
727,731
727,734
729,777
730,731
730,741
731,743
732,743
733,773
734,745
735,970
737,744
737,746
737,860
739,747
740,742
741,963
742,748
743,749
743,750
743,751
743,752
743,753
743,754
743,755
744,977
745,757
745,758
745,759
745,760
745,761
746,756
746,762
746,763
748,765
748,766
748,767
748,768
748,769
748,770
748,771
748,772
749,774
750,907
750,909
750,912
751,776
751,894
752,764
752,814
752,832
753,773
755,830
755,870
756,773
757,764
757,773
757,827
758,892
758,899
760,953
761,879
761,912
761,952
762,814
762,880
763,775
764,777
765,810
766,791
767,792
767,852
767,897
768,955
769,793
769,882
769,949
770,894
772,793
772,851
773,777
773,778
773,779
773,780
773,781
773,782
773,783
773,784
773,785
773,786
774,787
774,788
774,789
774,790
775,777
776,891
777,794
777,795
777,796
777,797
777,798
777,799
777,800
777,801
777,802
777,803
777,804
777,805
777,806
777,807
777,808
777,833
778,951
779,951
780,882
780,942
781,828
783,811
783,856
785,813
786,917
788,812
789,809
789,900
790,900
791,810
792,861
792,951
793,852
794,861
795,878
797,859
800,822
800,825
800,852
801,857
804,815
805,871
807,941
808,823
809,951
810,814
810,816
810,817
810,818
810,819
810,820
810,821
811,828
812,824
813,823
814,861
815,855
816,828
817,829
818,919
819,826
819,832
820,827
820,831
820,897
821,997
822,899
823,878
824,832
824,833
825,830
826,855
827,899
828,834
828,835
828,836
828,837
828,838
828,846
829,839
829,840
829,841
829,842
829,843
829,844
829,845
829,850
830,849
830,889
831,917
832,847
835,985
836,854
836,896
837,848
837,849
837,858
838,851
840,852
841,853
841,963
842,851
843,899
844,848
846,850
846,983
847,851
847,853
848,861
849,855
850,973
851,854
851,855
851,857
851,859
852,854
852,858
852,941
853,856
853,860
853,922
854,861
855,862
855,863
855,864
855,865
855,866
855,867
855,868
855,869
856,952
857,872
857,894
859,871
860,870
860,889
861,873
861,874
861,875
861,876
861,877
862,878
863,908
864,880
864,891
864,892
865,985
866,879
866,916
867,878
867,881
867,882
871,880
872,878
873,977
874,889
874,914
875,883
875,917
875,922
877,955
878,884
878,885
878,886
878,887
878,888
878,892
880,890
880,915
881,891
881,892
883,977
884,922
885,897
885,898
886,893
886,896
888,895
888,984
888,999
889,909
889,939
889,970
890,894
890,921
891,898
891,953
892,912
893,899
894,899
896,900
896,901
899,902
899,903
899,904
899,905
899,906
899,909
900,907
900,908
900,910
902,911
902,916
902,954
903,914
905,917
907,913
910,912
910,915
911,918
912,941
913,920
913,921
914,922
914,955
915,973
917,919
917,920
918,923
918,924
918,925
918,926
918,927
918,928
918,929
918,930
918,931
918,932
918,933
918,934
918,935
918,936
919,937
920,938
920,976
922,939
922,940
923,941
923,949
924,963
925,951
926,951
926,953
930,942
930,978
931,974
936,983
937,943
937,944
937,945
937,946
937,947
937,948
937,970
938,950
939,952
941,951
942,952
945,978
946,954
947,953
948,955
949,963
951,956
951,957
951,958
951,959
951,960
951,961
951,962
951,970
952,964
952,965
952,966
952,967
952,968
952,969
955,963
956,974
959,976
960,978
960,997
962,971
963,973
970,972
970,975
971,977
972,978
973,979
973,980
973,981
973,982
973,985
974,986
975,983
976,984
977,987
977,988
977,989
977,990
978,991
978,992
978,993
978,994
978,995
984,996
985,997
990,999
996,998
998,1000

<end>
